31
1
1 40 40
2 22 22
3 36 26
4 21 45
5 45 35
6 55 20
7 33 34
8 50 50
9 55 45
10 26 59
11 40 66
12 55 65
13 35 51
14 62 35
15 62 57
16 62 24
17 21 36
18 33 44
19 9 56
20 62 48
21 66 14
22 44 13
23 26 13
24 11 28
25 7 43
26 17 64
27 41 46
28 55 34
29 35 16
30 52 26
31 43 26
1 0
2 2
3 3
4 3
5 2
6 1
7 1
8 3
9 2
10 3
11 1
12 1
13 3
14 3
15 1
16 1
17 2
18 1
19 3
20 3
21 2
22 2
23 2
24 3
25 3
26 1
27 3
28 3
29 1
30 3
31 1
